
Gurobi 13.0.2 (win64) logging started Thu Jul 23 06:37:31 2026

Set parameter LogFile to value "E:\codes\ExactEBRP\results\gf_cplex_equivalent_gurobi_replica_round28\runs\stage2__moderate_seed5301__c3_replica__300s\external\native_logs\R.0_lp.gurobi.log"
Gurobi Optimizer version 13.0.2 build v13.0.2rc1 (win64 - Windows 10.0 (19045.2))

CPU model: 12th Gen Intel(R) Core(TM) i7-12700KF, instruction set [SSE2|AVX|AVX2]
Thread count: 12 physical cores, 20 logical processors, using up to 1 threads

Non-default parameters:
TimeLimit  252.3938259
MIPGap  0
MIPGapAbs  0
LogToConsole  0
Threads  1

Optimize a model with 11944 rows, 3386 columns and 67184 nonzeros (Min)
Model fingerprint: 0x94f3d6a6
Model has 21 linear objective coefficients
Coefficient statistics:
  Matrix range     [9e-03, 1e+04]
  Objective range  [9e-03, 1e+00]
  Bounds range     [8e-02, 2e+02]
  RHS range        [8e-02, 5e+04]

Presolve removed 913 rows and 103 columns
Presolve time: 0.04s
Presolved: 11031 rows, 3285 columns, 64723 nonzeros

Iteration    Objective       Primal Inf.    Dual Inf.      Time
       0    0.0000000e+00   3.128366e+02   0.000000e+00      0s
    3132    5.2569881e-02   0.000000e+00   0.000000e+00      0s

Solved in 3132 iterations and 0.24 seconds (0.75 work units)
Optimal objective  5.256988136e-02

User-callback calls 3275, time in user-callback 0.00 sec
